NAME : single
TYPE : ATSP
DIMENSION : 9
EDGE_WEIGHT_TYPE : EXPLICIT
EDGE_WEIGHT_FORMAT : FULL_MATRIX
EDGE_WEIGHT_SECTION
0 1317 -6293 1291 -6493 1242 -6825 -6843 -1183 
0 0 105 257 245 719 563 579 524 
0 105 0 190 148 615 465 477 435 
0 257 190 0 242 593 517 510 495 
0 245 148 242 0 484 317 335 287 
0 719 615 593 484 0 240 219 331 
0 563 465 517 317 240 0 115 222 
0 579 477 510 335 219 115 0 165 
0 524 435 495 287 331 222 165 0 
EOF